(set-logic ALL)
(set-option :produce-models true)
(define-fun-rec str.toLower ((x String)) String
  (ite (= x "")
      ""
      (let ((Head (str.at x 0)))
        (str.++ 
          (ite (and (<= 65 (str.to_code Head)) 
                     (<= (str.to_code Head) 90))
               (str.from_code (+ (str.to_code Head) 32))
               Head)
          (str.toLower (str.substr x 1 (- (str.len x) 1)))))))
(declare-fun sym811 () String)
(assert (<= (str.len sym811) 1))
(declare-fun sym209 () String)
(assert (<= (str.len sym209) 1))
(declare-fun sym4717 () String)
(assert (<= (str.len sym4717) 1))
(declare-fun sym1679 () String)
(assert (<= (str.len sym1679) 1))
(declare-fun sym2538 () String)
(assert (<= (str.len sym2538) 1))
(declare-fun sym2953 () String)
(assert (<= (str.len sym2953) 1))
(declare-fun sym551 () String)
(assert (<= (str.len sym551) 1))
(declare-fun sym2107 () String)
(assert (<= (str.len sym2107) 1))
(declare-fun sym4206 () String)
(assert (<= (str.len sym4206) 1))
(declare-fun sym1257 () String)
(assert (<= (str.len sym1257) 1))
(declare-fun sym4623 () String)
(assert (<= (str.len sym4623) 1))
(declare-fun sym3169 () String)
(assert (<= (str.len sym3169) 1))
(declare-fun sym2751 () String)
(assert (<= (str.len sym2751) 1))
(declare-fun sym4413 () String)
(assert (<= (str.len sym4413) 1))
(declare-fun sym1036 () String)
(assert (<= (str.len sym1036) 1))
(declare-fun sym2323 () String)
(assert (<= (str.len sym2323) 1))
(declare-fun sym1894 () String)
(assert (<= (str.len sym1894) 1))
(declare-fun sym3376 () String)
(assert (<= (str.len sym3376) 1))
(declare-fun sym3793 () String)
(assert (<= (str.len sym3793) 1))
(declare-fun sym3583 () String)
(assert (<= (str.len sym3583) 1))
(declare-fun sym4000 () String)
(assert (<= (str.len sym4000) 1))
(declare-fun sym1470 () String)
(assert (<= (str.len sym1470) 1))
(declare-fun sym161 () String)
(assert (<= (str.len sym161) 1))
(define-fun Alphabet () RegLan 
	(re.* (re.union (str.to_re "A") (str.to_re "B") (str.to_re "C") (str.to_re "D") (str.to_re "E") (str.to_re "F") (str.to_re "G") (str.to_re "H") (str.to_re "I") (str.to_re "J") (str.to_re "K") (str.to_re "L") (str.to_re "M") (str.to_re "N") (str.to_re "O") (str.to_re "P") (str.to_re "Q") (str.to_re "R") (str.to_re "S") (str.to_re "T") (str.to_re "U") (str.to_re "V") (str.to_re "W") (str.to_re "X") (str.to_re "Y") (str.to_re "Z") (str.to_re "a") (str.to_re "b") (str.to_re "c") (str.to_re "d") (str.to_re "e") (str.to_re "f") (str.to_re "g") (str.to_re "h") (str.to_re "i") (str.to_re "j") (str.to_re "k") (str.to_re "l") (str.to_re "m") (str.to_re "n") (str.to_re "o") (str.to_re "p") (str.to_re "q") (str.to_re "r") (str.to_re "s") (str.to_re "t") (str.to_re "u") (str.to_re "v") (str.to_re "w") (str.to_re "x") (str.to_re "y") (str.to_re "z") ))
)

(assert (str.in_re sym161 Alphabet))
(assert (str.in_re sym1470 Alphabet))
(assert (str.in_re sym4000 Alphabet))
(assert (str.in_re sym3583 Alphabet))
(assert (str.in_re sym3793 Alphabet))
(assert (str.in_re sym3376 Alphabet))
(assert (str.in_re sym1894 Alphabet))
(assert (str.in_re sym2323 Alphabet))
(assert (str.in_re sym1036 Alphabet))
(assert (str.in_re sym4413 Alphabet))
(assert (str.in_re sym2751 Alphabet))
(assert (str.in_re sym3169 Alphabet))
(assert (str.in_re sym4623 Alphabet))
(assert (str.in_re sym1257 Alphabet))
(assert (str.in_re sym4206 Alphabet))
(assert (str.in_re sym2107 Alphabet))
(assert (str.in_re sym551 Alphabet))
(assert (str.in_re sym2953 Alphabet))
(assert (str.in_re sym2538 Alphabet))
(assert (str.in_re sym1679 Alphabet))
(assert (str.in_re sym4717 Alphabet))
(assert (str.in_re sym209 Alphabet))
(assert (str.in_re sym811 Alphabet))(assert (<= 1 (str.len sym4717 )))
(assert (<= 1 (str.len sym3583 )))
(assert (<= 1 (str.len sym3376 )))
(assert (<= 1 (str.len sym3793 )))
(assert (<= 1 (str.len sym4413 )))
(assert (<= 1 (str.len sym4623 )))
(assert (<= 1 (str.len sym1470 )))
(assert (<= 1 (str.len sym4206 )))
(assert (<= 1 (str.len sym1679 )))
(assert (<= 1 (str.len sym1257 )))
(assert (<= 1 (str.len sym1036 )))
(assert (<= 1 (str.len sym209 )))
(assert (<= 1 (str.len sym1894 )))
(assert (<= 1 (str.len sym4000 )))
(assert (<= 1 (str.len sym811 )))
(assert (<= 1 (str.len sym2751 )))
(assert (<= 1 (str.len sym551 )))
(assert (<= 1 (str.len sym3169 )))
(assert (<= 1 (str.len sym2323 )))
(assert (<= 1 (str.len sym2107 )))
(assert (<= 1 (str.len sym2538 )))
(assert (<= 1 (str.len sym2953 )))

(assert (not (= "y" "n" )))
(assert (not (= (str.toLower (str.substr sym3793  0 1))"p" )))
(assert (not (= (str.toLower (str.substr sym2953  0 1))"g" )))
(assert (not (= (str.toLower (str.substr sym3169  0 1))"p" )))
(assert (= (str.toLower (str.substr sym1679  0 1))"h" ))
(assert (= (str.toLower (str.substr sym551  0 1))"k" ))
(assert (not (= (str.toLower (str.substr sym811  0 1))"p" )))
(assert (not (= (str.toLower (str.substr sym1036  0 1))"k" )))
(assert (not (= (str.toLower (str.substr sym1470  0 1))"q" )))
(assert (not (= "" sym2323 )))
(assert (not (= (str.toLower (str.substr sym2751  0 1))"q" )))
(assert (not (= "" sym4623 )))
(assert (not (= "" sym811 )))
(assert (not (= (str.toLower (str.substr sym2323  0 1))"g" )))
(assert (not (= (str.toLower (str.substr sym4000  0 1))"p" )))
(assert (not (= (str.toLower (str.substr sym2538  0 1))"p" )))
(assert (not (= "" sym4206 )))
(assert (= (str.toLower (str.substr sym2107  0 1))"g" ))
(assert (not (= "" sym2751 )))
(assert (= (str.toLower (str.substr sym4206  0 1))"k" ))
(assert (not (= "" sym209 )))
(assert (not (= (str.toLower (str.substr sym2107  0 1))"p" )))
(assert (not (= (str.toLower (str.substr sym2751  0 1))"k" )))
(assert (not (= (str.toLower (str.substr sym2323  0 1))"k" )))
(assert (= (str.toLower (str.substr sym4623  0 1))"k" ))
(assert (not (= (str.toLower (str.substr sym2323  0 1))"r" )))
(assert (not (= "" sym3583 )))
(assert (not (= (str.toLower (str.substr sym1036  0 1))"l" )))
(assert (= (str.toLower (str.substr sym3793  0 1))"g" ))
(assert (= (str.toLower (str.substr sym1257  0 1))"k" ))
(assert (= (str.toLower (str.substr sym2323  0 1))"h" ))
(assert (not (= (str.toLower (str.substr sym1894  0 1))"p" )))
(assert (= (str.toLower (str.substr sym2751  0 1))"g" ))
(assert (not (= (str.toLower (str.substr sym1036  0 1))"p" )))
(assert (not (= (str.toLower (str.substr sym4000  0 1))"r" )))
(assert (not (= (str.toLower (str.substr sym3583  0 1))"p" )))
(assert (not (= (str.toLower (str.substr sym1679  0 1))"g" )))
(assert (not (= (str.toLower (str.substr sym551  0 1))"q" )))
(assert (not (= (str.toLower (str.substr sym3793  0 1))"q" )))
(assert (not (= (str.toLower (str.substr sym1257  0 1))"q" )))
(assert (not (= "" sym4413 )))
(assert (not (= (str.toLower (str.substr sym811  0 1))"k" )))
(assert (not (= (str.toLower (str.substr sym1679  0 1))"q" )))
(assert (not (= "" sym1257 )))
(assert (not (= (str.toLower (str.substr sym4206  0 1))"q" )))
(assert (= (str.toLower (str.substr sym209  0 1))"y" ))
(assert (not (= "" "n" )))
(assert (not (= (str.toLower (str.substr sym2107  0 1))"k" )))
(assert (= (str.toLower (str.substr sym3169  0 1))"k" ))
(assert (not (= (str.toLower (str.substr sym4413  0 1))"p" )))
(assert (not (= (str.toLower (str.substr sym1036  0 1))"r" )))
(assert (not (= (str.toLower (str.substr sym2953  0 1))"q" )))
(assert (not (= (str.toLower (str.substr sym4413  0 1))"q" )))
(assert (not (= (str.toLower (str.substr sym811  0 1))"q" )))
(assert (not (= (str.toLower (str.substr sym1036  0 1))"g" )))
(assert (not (= "" sym2107 )))
(assert (= "y" "y" ))
(assert (not (= (str.toLower (str.substr sym2953  0 1))"p" )))
(assert (not (= (str.toLower (str.substr sym2751  0 1))"p" )))
(assert (not (= (str.toLower (str.substr sym2538  0 1))"q" )))
(assert (not (= "" sym551 )))
(assert (not (= (str.toLower (str.substr sym1470  0 1))"p" )))
(assert (not (= (str.toLower (str.substr sym3583  0 1))"k" )))
(assert (not (= "n" "y" )))
(assert (not (= (str.toLower (str.substr sym2323  0 1))"q" )))
(assert (not (= "" sym4717 )))
(assert (not (= "" sym1470 )))
(assert (not (= (str.toLower (str.substr sym2107  0 1))"q" )))
(assert (not (= "" (str.toLower (str.substr sym209  0 1)))))
(assert (not (= (str.toLower (str.substr sym4413  0 1))"k" )))
(assert (= (str.toLower (str.substr sym3376  0 1))"k" ))
(assert (not (= "" "y" )))
(assert (not (= (str.toLower (str.substr sym3793  0 1))"k" )))
(assert (= (str.toLower (str.substr sym4000  0 1))"l" ))
(assert (= (str.toLower (str.substr sym3583  0 1))"g" ))
(assert (not (= (str.toLower (str.substr sym3169  0 1))"q" )))
(assert (not (= (str.toLower (str.substr sym1679  0 1))"k" )))
(assert (not (= (str.toLower (str.substr sym2953  0 1))"r" )))
(assert (not (= (str.toLower (str.substr sym1470  0 1))"k" )))
(assert (= (str.toLower (str.substr sym1470  0 1))"g" ))
(assert (not (= "" "y" )))
(assert (= (str.toLower (str.substr sym4413  0 1))"g" ))
(assert (= (str.toLower (str.substr sym2953  0 1))"h" ))
(assert (not (= "" sym4000 )))
(assert (not (= (str.toLower (str.substr sym1036  0 1))"q" )))
(assert (not (= (str.toLower (str.substr sym4623  0 1))"q" )))
(assert (not (= (str.toLower (str.substr sym1679  0 1))"r" )))
(assert (= "" "" ))
(assert (not (= (str.toLower (str.substr sym3583  0 1))"q" )))
(assert (not (= (str.toLower (str.substr sym1679  0 1))"p" )))
(assert (not (= "" "q" )))
(assert (not (= (str.toLower (str.substr sym2323  0 1))"l" )))
(assert (not (= (str.toLower (str.substr sym4623  0 1))"p" )))
(assert (not (= (str.toLower (str.substr sym4717  0 1))"y" )))
(assert (not (= "" sym3376 )))
(assert (not (= (str.toLower (str.substr sym1894  0 1))"q" )))
(assert (not (= "" sym1894 )))
(assert (not (= "" sym2953 )))
(assert (not (= "" sym1036 )))
(assert (not (= "" sym3169 )))
(assert (not (= (str.toLower (str.substr sym2953  0 1))"l" )))
(assert (not (= (str.toLower (str.substr sym1679  0 1))"l" )))
(assert (not (= (str.toLower (str.substr sym4000  0 1))"q" )))
(assert (= (str.toLower (str.substr sym1894  0 1))"k" ))
(assert (= (str.toLower (str.substr sym1036  0 1))"h" ))
(assert (not (= (str.toLower (str.substr sym4000  0 1))"g" )))
(assert (not (= "" (str.toLower (str.substr sym4717  0 1)))))
(assert (not (= (str.toLower (str.substr sym4206  0 1))"p" )))
(assert (not (= "" sym2538 )))
(assert (not (= (str.toLower (str.substr sym3376  0 1))"q" )))
(assert (= (str.toLower (str.substr sym811  0 1))"g" ))
(assert (not (= (str.toLower (str.substr sym2323  0 1))"p" )))
(assert (= "" sym161 ))
(assert (not (= (str.toLower (str.substr sym4000  0 1))"k" )))
(assert (not (= "" sym1679 )))
(assert (not (= (str.toLower (str.substr sym3376  0 1))"p" )))
(assert (= (str.toLower (str.substr sym2538  0 1))"k" ))
(assert (not (= "" sym3793 )))
(assert (not (= (str.toLower (str.substr sym551  0 1))"p" )))
(assert (not (= (str.toLower (str.substr sym1257  0 1))"p" )))
(assert (not (= (str.toLower (str.substr sym2953  0 1))"k" )))
(check-sat)
(get-model)
(exit)
